k = 80;
b = 40;
AtomicConstraints =  [|
14, 1|
	14, 12|
	14, 16|
	15, 1|
	15, 12|
	15, 16|
	15, 27|
	17, 12|
	17, 16|
	17, 27|
	17, 36|
	18, 16|
	18, 27|
	18, 36|
	18, 37|
	19, 27|
	19, 36|
	19, 37|
	19, 38|
	20, 36|
	20, 37|
	20, 38|
	20, 39|
	21, 37|
	21, 38|
	21, 39|
	21, 40|
	22, 2|
	22, 38|
	22, 39|
	22, 40|
	23, 2|
	23, 3|
	23, 39|
	23, 40|
	24, 2|
	24, 3|
	24, 4|
	24, 40|
	25, 2|
	25, 3|
	25, 4|
	25, 5|
	26, 3|
	26, 4|
	26, 5|
	26, 6|
	28, 4|
	28, 5|
	28, 6|
	28, 7|
	29, 5|
	29, 6|
	29, 7|
	29, 8|
	30, 6|
	30, 7|
	30, 8|
	30, 9|
	31, 7|
	31, 8|
	31, 9|
	31, 10|
	32, 8|
	32, 9|
	32, 10|
	32, 11|
	33, 9|
	33, 10|
	33, 11|
	33, 13|
	34, 10|
	34, 11|
	34, 13|
	35, 11|
	35, 13|
	68, 57|
	68, 55|
	68, 54|
	68, 76|
	68, 67|
	68, 56|
	68, 52|
	68, 41|
	68, 58|
	66, 57|
	66, 55|
	66, 54|
	66, 76|
	66, 67|
	66, 56|
	66, 52|
	66, 41|
	65, 55|
	65, 54|
	65, 76|
	65, 67|
	65, 56|
	65, 52|
	65, 41|
	47, 76|
	47, 67|
	47, 56|
	47, 52|
	47, 41|
	46, 76|
	46, 67|
	46, 56|
	46, 52|
	46, 41|
	45, 67|
	45, 56|
	45, 52|
	45, 41|
	44, 52|
	44, 41|
	43, 41|
	70, 57|
	70, 55|
	70, 54|
	70, 76|
	70, 67|
	70, 56|
	70, 52|
	70, 41|
	70, 59|
	70, 58|
	69, 57|
	69, 55|
	69, 54|
	69, 76|
	69, 67|
	69, 56|
	69, 52|
	69, 41|
	69, 59|
	69, 58|
	62, 57|
	62, 55|
	62, 54|
	62, 76|
	62, 67|
	62, 56|
	62, 52|
	62, 41|
	62, 68|
	62, 66|
	62, 65|
	62, 47|
	62, 46|
	62, 45|
	62, 44|
	62, 43|
	62, 69|
	61, 55|
	61, 54|
	61, 76|
	61, 67|
	61, 56|
	61, 52|
	61, 41|
	61, 68|
	61, 66|
	61, 65|
	61, 47|
	61, 46|
	61, 45|
	61, 44|
	61, 43|
	60, 54|
	60, 76|
	60, 67|
	60, 56|
	60, 52|
	60, 41|
	60, 66|
	60, 65|
	60, 47|
	60, 46|
	60, 45|
	60, 44|
	60, 43|
	42, 76|
	42, 67|
	42, 56|
	42, 52|
	42, 41|
	42, 65|
	42, 47|
	42, 46|
	42, 45|
	42, 44|
	42, 43|
	80, 67|
	80, 56|
	80, 52|
	80, 41|
	80, 47|
	80, 46|
	80, 45|
	80, 44|
	80, 43|
	79, 56|
	79, 52|
	79, 41|
	79, 46|
	79, 45|
	79, 44|
	79, 43|
	78, 52|
	78, 41|
	78, 45|
	78, 44|
	78, 43|
	77, 41|
	77, 44|
	77, 43|
	64, 57|
	64, 55|
	64, 54|
	64, 76|
	64, 67|
	64, 56|
	64, 52|
	64, 41|
	64, 59|
	64, 58|
	64, 68|
	64, 66|
	64, 65|
	64, 47|
	64, 46|
	64, 45|
	64, 44|
	64, 43|
	64, 70|
	64, 69|
	63, 57|
	63, 55|
	63, 54|
	63, 76|
	63, 67|
	63, 56|
	63, 52|
	63, 41|
	63, 58|
	63, 68|
	63, 66|
	63, 65|
	63, 47|
	63, 46|
	63, 45|
	63, 44|
	63, 43|
	63, 70|
	63, 69|
	73, 55|
	73, 54|
	73, 76|
	73, 67|
	73, 56|
	73, 52|
	73, 41|
	73, 68|
	73, 66|
	73, 65|
	73, 47|
	73, 46|
	73, 45|
	73, 44|
	73, 43|
	73, 62|
	73, 61|
	73, 60|
	73, 42|
	73, 80|
	73, 79|
	73, 78|
	73, 77|
	73, 63|
	72, 54|
	72, 76|
	72, 67|
	72, 56|
	72, 52|
	72, 41|
	72, 66|
	72, 65|
	72, 47|
	72, 46|
	72, 45|
	72, 44|
	72, 43|
	72, 62|
	72, 61|
	72, 60|
	72, 42|
	72, 80|
	72, 79|
	72, 78|
	72, 77|
	71, 76|
	71, 67|
	71, 56|
	71, 52|
	71, 41|
	71, 65|
	71, 47|
	71, 46|
	71, 45|
	71, 44|
	71, 43|
	71, 61|
	71, 60|
	71, 42|
	71, 80|
	71, 79|
	71, 78|
	71, 77|
	53, 67|
	53, 56|
	53, 52|
	53, 41|
	53, 47|
	53, 46|
	53, 45|
	53, 44|
	53, 43|
	53, 60|
	53, 42|
	53, 80|
	53, 79|
	53, 78|
	53, 77|
	51, 56|
	51, 52|
	51, 41|
	51, 46|
	51, 45|
	51, 44|
	51, 43|
	51, 42|
	51, 80|
	51, 79|
	51, 78|
	51, 77|
	50, 52|
	50, 41|
	50, 45|
	50, 44|
	50, 43|
	50, 80|
	50, 79|
	50, 78|
	50, 77|
	49, 41|
	49, 44|
	49, 43|
	49, 78|
	49, 77|
	48, 43|
	48, 77|
	75, 57|
	75, 55|
	75, 54|
	75, 76|
	75, 67|
	75, 56|
	75, 52|
	75, 41|
	75, 58|
	75, 68|
	75, 66|
	75, 65|
	75, 47|
	75, 46|
	75, 45|
	75, 44|
	75, 43|
	75, 70|
	75, 69|
	75, 62|
	75, 61|
	75, 60|
	75, 42|
	75, 80|
	75, 79|
	75, 78|
	75, 77|
	75, 64|
	75, 63|
	74, 57|
	74, 55|
	74, 54|
	74, 76|
	74, 67|
	74, 56|
	74, 52|
	74, 41|
	74, 68|
	74, 66|
	74, 65|
	74, 47|
	74, 46|
	74, 45|
	74, 44|
	74, 43|
	74, 69|
	74, 62|
	74, 61|
	74, 60|
	74, 42|
	74, 80|
	74, 79|
	74, 78|
	74, 77|
	74, 64|
	74, 63|];
DisjunctiveConstraints =  [|2, 40, 2, 3|
	3, 2, 3, 4|
	4, 3, 4, 5|
	5, 4, 5, 6|
	6, 5, 6, 7|
	7, 6, 7, 8|
	8, 7, 8, 9|
	9, 8, 9, 10|
	10, 9, 10, 11|
	11, 10, 11, 13|
	15, 14, 15, 17|
	12, 1, 12, 16|
	17, 15, 17, 18|
	18, 17, 18, 19|
	19, 18, 19, 20|
	20, 19, 20, 21|
	21, 20, 21, 22|
	22, 21, 22, 23|
	23, 22, 23, 24|
	24, 23, 24, 25|
	25, 24, 25, 26|
	26, 25, 26, 28|
	16, 12, 16, 27|
	28, 26, 28, 29|
	29, 28, 29, 30|
	30, 29, 30, 31|
	31, 30, 31, 32|
	32, 31, 32, 33|
	33, 32, 33, 34|
	34, 33, 34, 35|
	27, 16, 27, 36|
	36, 27, 36, 37|
	37, 36, 37, 38|
	38, 37, 38, 39|
	39, 38, 39, 40|
	40, 39, 40, 2|
	57, 58, 57, 55|
	55, 57, 55, 54|
	54, 55, 54, 76|
	76, 54, 76, 67|
	67, 76, 67, 56|
	56, 67, 56, 52|
	52, 56, 52, 41|
	58, 59, 58, 57|
	68, 15, 68, 55|
	68, 17, 68, 57|
	68, 58, 18, 68|
	68, 69, 68, 66|
	66, 14, 66, 54|
	66, 15, 66, 55|
	66, 57, 17, 66|
	66, 68, 66, 65|
	65, 14, 65, 54|
	65, 36, 65, 76|
	65, 55, 15, 65|
	65, 66, 65, 47|
	47, 27, 47, 67|
	47, 36, 47, 76|
	47, 54, 14, 47|
	47, 65, 47, 46|
	46, 16, 46, 56|
	46, 27, 46, 67|
	46, 76, 36, 46|
	46, 47, 46, 45|
	45, 12, 45, 52|
	45, 16, 45, 56|
	45, 67, 27, 45|
	45, 46, 45, 44|
	44, 1, 44, 41|
	44, 12, 44, 52|
	44, 56, 16, 44|
	44, 45, 44, 43|
	43, 1, 43, 41|
	43, 52, 12, 43|
	70, 18, 70, 58|
	70, 19, 70, 59|
	69, 17, 69, 57|
	69, 18, 69, 58|
	69, 59, 19, 69|
	69, 70, 69, 68|
	62, 15, 62, 55|
	62, 26, 62, 66|
	62, 28, 62, 68|
	62, 59, 19, 62|
	62, 70, 30, 62|
	62, 69, 29, 62|
	62, 63, 62, 61|
	61, 14, 61, 54|
	61, 25, 61, 65|
	61, 26, 61, 66|
	61, 59, 19, 61|
	61, 58, 18, 61|
	61, 68, 28, 61|
	61, 69, 29, 61|
	61, 62, 61, 60|
	60, 7, 60, 47|
	60, 25, 60, 65|
	60, 36, 60, 76|
	60, 57, 17, 60|
	60, 58, 18, 60|
	60, 66, 26, 60|
	60, 61, 60, 42|
	42, 6, 42, 46|
	42, 7, 42, 47|
	42, 16, 42, 56|
	42, 27, 42, 67|
	42, 57, 17, 42|
	42, 55, 15, 42|
	42, 66, 26, 42|
	42, 65, 25, 42|
	42, 60, 42, 80|
	80, 5, 80, 45|
	80, 6, 80, 46|
	80, 12, 80, 52|
	80, 16, 80, 56|
	80, 55, 15, 80|
	80, 54, 14, 80|
	80, 47, 7, 80|
	80, 42, 80, 79|
	79, 4, 79, 44|
	79, 5, 79, 45|
	79, 1, 79, 41|
	79, 12, 79, 52|
	79, 54, 14, 79|
	79, 76, 36, 79|
	79, 46, 6, 79|
	79, 80, 79, 78|
	78, 3, 78, 43|
	78, 4, 78, 44|
	78, 1, 78, 41|
	78, 76, 36, 78|
	78, 67, 27, 78|
	78, 45, 5, 78|
	78, 79, 78, 77|
	77, 3, 77, 43|
	77, 67, 27, 77|
	77, 56, 16, 77|
	77, 44, 4, 77|
	64, 18, 64, 58|
	64, 29, 64, 69|
	64, 30, 64, 70|
	63, 17, 63, 57|
	63, 28, 63, 68|
	63, 29, 63, 69|
	63, 70, 30, 63|
	63, 64, 63, 62|
	73, 14, 73, 54|
	73, 21, 73, 61|
	73, 22, 73, 62|
	73, 26, 73, 66|
	73, 64, 24, 73|
	73, 63, 23, 73|
	73, 74, 73, 72|
	72, 20, 72, 60|
	72, 21, 72, 61|
	72, 25, 72, 65|
	72, 36, 72, 76|
	72, 70, 30, 72|
	72, 69, 29, 72|
	72, 62, 22, 72|
	72, 63, 23, 72|
	72, 73, 72, 71|
	71, 2, 71, 42|
	71, 7, 71, 47|
	71, 20, 71, 60|
	71, 27, 71, 67|
	71, 59, 19, 71|
	71, 68, 28, 71|
	71, 69, 29, 71|
	71, 62, 22, 71|
	71, 61, 21, 71|
	71, 72, 71, 53|
	53, 2, 53, 42|
	53, 6, 53, 46|
	53, 16, 53, 56|
	53, 40, 53, 80|
	53, 58, 18, 53|
	53, 68, 28, 53|
	53, 66, 26, 53|
	53, 61, 21, 53|
	53, 60, 20, 53|
	53, 71, 53, 51|
	51, 5, 51, 45|
	51, 12, 51, 52|
	51, 39, 51, 79|
	51, 40, 51, 80|
	51, 57, 17, 51|
	51, 66, 26, 51|
	51, 65, 25, 51|
	51, 42, 2, 51|
	51, 53, 51, 50|
	50, 4, 50, 44|
	50, 1, 50, 41|
	50, 38, 50, 78|
	50, 39, 50, 79|
	50, 55, 15, 50|
	50, 65, 25, 50|
	50, 47, 7, 50|
	50, 80, 40, 50|
	50, 51, 50, 49|
	49, 3, 49, 43|
	49, 37, 49, 77|
	49, 38, 49, 78|
	49, 54, 14, 49|
	49, 47, 7, 49|
	49, 46, 6, 49|
	49, 79, 39, 49|
	49, 50, 49, 48|
	48, 37, 48, 77|
	48, 76, 36, 48|
	48, 46, 6, 48|
	48, 45, 5, 48|
	48, 78, 38, 48|
	75, 17, 75, 57|
	75, 18, 75, 58|
	75, 23, 75, 63|
	75, 24, 75, 64|
	75, 29, 75, 69|
	74, 15, 74, 55|
	74, 22, 74, 62|
	74, 23, 74, 63|
	74, 28, 74, 68|
	74, 64, 24, 74|
	74, 75, 74, 73|];
SoftAtomicConstraints =  [|
40, 2|
2, 3|
3, 4|
4, 5|
5, 6|
6, 7|
7, 8|
8, 9|
9, 10|
10, 11|
1, 12|
11, 13|
14, 15|
12, 16|
15, 17|
17, 18|
18, 19|
19, 20|
20, 21|
21, 22|
22, 23|
23, 24|
24, 25|
25, 26|
16, 27|
26, 28|
28, 29|
29, 30|
30, 31|
31, 32|
32, 33|
33, 34|
34, 35|
27, 36|
36, 37|
37, 38|
38, 39|
39, 40|
52, 41|
60, 42|
44, 43|
45, 44|
46, 45|
47, 46|
65, 47|
49, 48|
50, 49|
51, 50|
53, 51|
56, 52|
71, 53|
55, 54|
57, 55|
67, 56|
58, 57|
59, 58|
61, 60|
62, 61|
63, 62|
64, 63|
66, 65|
68, 66|
76, 67|
69, 68|
70, 69|
72, 71|
73, 72|
74, 73|
75, 74|
54, 76|
78, 77|
79, 78|
80, 79|
42, 80|];
DirectSuccessors =  [];
